==> MAXTIME              = 3600
==> OUTPUTLOG            = 1
==> HEURSEARCHROOTSELECT = 3
FICO Xpress v8.5.9, solve started 23:43:51, Jun 8, 2019
Maximizing MILP Seating model
Original problem has:
       230 rows          300 cols         7440 elements       300 globals
Presolved problem has:
       103 rows          204 cols         2431 elements       198 globals
LP relaxation tightened
Will try to keep branch and bound tree memory usage below 7.2GB
 *** Heuristic solution found:    22.000000      Time: 0 ***
Starting concurrent solve with dual

 Concurrent-Solve,   0s
            Dual        
    objective   dual inf
 D  102.00000   .0000000
------- optimal --------
Concurrent statistics:
      Dual: 34 simplex iterations, 0.00s
Optimal solution found
 
   Its         Obj Value      S   Ninf  Nneg   Sum Dual Inf  Time
    34        102.000000      D      0     0        .000000     0
Dual solved problem
  34 simplex iterations in 0s

Final objective                         : 1.020000000000000e+02
  Max primal violation      (abs / rel) : 1.110e-16 / 9.869e-17
  Max dual violation        (abs / rel) :       0.0 /       0.0
  Max complementarity viol. (abs / rel) :       0.0 /       0.0
All values within tolerances

Starting root cutting & heuristics
 
 Its Type    BestSoln    BestBound   Sols    Add    Del     Gap     GInf   Time
   1  K     22.000000   102.000000      1     99      0   78.43%      29      0
   2  K     22.000000   102.000000      1    111     81   78.43%      43      0
   3  K     22.000000   102.000000      1     92    101   78.43%      48      0
b           28.000000   102.000000      2                 72.55%       0      0
   4  K     28.000000   102.000000      2     87     94   72.55%      35      0
   5  K     28.000000   102.000000      2    100     83   72.55%      49      0
   6  K     28.000000   102.000000      2     93     97   72.55%      47      0
   7  K     28.000000   102.000000      2     89     88   72.55%      58      0
b           35.000000   102.000000      3                 65.69%       0      0
   8  K     35.000000   102.000000      3     81     91   65.69%      37      0
   9  K     35.000000   102.000000      3     95     87   65.69%      48      0
  10  K     35.000000   102.000000      3     97     89   65.69%      58      0
  11  K     35.000000   102.000000      3     83     86   65.69%      67      0
  12  K     35.000000   102.000000      3     93     82   65.69%      72      0
  13  K     35.000000   102.000000      3     87     85   65.69%      76      0
  14  K     35.000000   102.000000      3      2     83   65.69%      39      0
  15  K     35.000000   102.000000      3      1      7   65.69%      39      0
  16  K     35.000000   102.000000      3      1     13   65.69%      39      0
  17  K     35.000000   102.000000      3     96      8   65.69%      58      0
  18  K     35.000000   102.000000      3      2     91   65.69%      39      0
b           47.000000   102.000000      4                 53.92%       0      0
  19  K     47.000000   102.000000      4     93     14   53.92%      52      0
  20  K     47.000000   102.000000      4     99    150   53.92%      59      0
  21  G     47.000000   102.000000      4     39     31   53.92%      41      0
  22  G     47.000000   102.000000      4     70    110   53.92%      55      0
Heuristic search started
Heuristic search stopped
L           52.000000   102.000000      5                 49.02%       0      0
 
Cuts in the matrix         : 39
Cut elements in the matrix : 1106
 
Starting tree search.
Deterministic mode with up to 4 running threads and up to 8 tasks.
 
    Node     BestSoln    BestBound   Sols Active  Depth     Gap     GInf   Time
       1    52.000000   102.000000      5      2      1   49.02%      45      0
       2    52.000000   102.000000      5      2      2   49.02%      57      1
       3    52.000000   102.000000      5      2      3   49.02%      45      1
       4    52.000000   102.000000      5      2      2   49.02%      35      1
       5    52.000000   102.000000      5      2      3   49.02%      48      1
       6    52.000000   102.000000      5      2      4   49.02%      46      1
       7    52.000000   102.000000      5      5      3   49.02%      47      1
       8    52.000000   102.000000      5      5      4   49.02%      48      1
       9    52.000000   102.000000      5      5      4   49.02%      27      1
      10    52.000000   102.000000      5      8      5   49.02%      38      1
      24    52.000000   102.000000      5     17     11   49.02%      53      1
      35    52.000000   102.000000      5     17     17   49.02%      19      1
      47    52.000000   102.000000      5     17     16   49.02%      38      1
      64    52.000000   102.000000      5     25     16   49.02%      53      1
      83    52.000000   102.000000      5     25     16   49.02%      34      1
     100    52.000000   102.000000      5     25     17   49.02%      33      1
     200    52.000000   102.000000      5     51     16   49.02%      29      1
     306    52.000000   102.000000      5     83     16   49.02%      39      1
     410    52.000000   102.000000      5     98     16   49.02%      45      1
B&B tree size: 1.6MB total
 
    Node     BestSoln    BestBound   Sols Active  Depth     Gap     GInf   Time
     510    52.000000   102.000000      5    117     16   49.02%      46      1
     617    52.000000   102.000000      5    144     19   49.02%      29      1
     717    52.000000   102.000000      5    175     21   49.02%      25      1
     818    52.000000   101.497693      5    267     14   48.77%      41      1
     918    52.000000   101.497693      5    290     16   48.77%      31      2
    1020    52.000000   101.497693      5    322     16   48.77%      40      2
    1124    52.000000   101.497693      5    322     15   48.77%      36      2
    1230    52.000000   101.497693      5    366     16   48.77%      39      2
    1335    52.000000   101.497693      5    366     25   48.77%      19      2
    1443    52.000000   101.497693      5    366     27   48.77%      29      2
a   1496    53.000000   101.497693      6    366     24   47.78%       0      2
    1556    53.000000   101.497693      6    366     19   47.78%      36      2
a   1644    54.000000   101.497693      7    366     22   46.80%       0      2
    1671    54.000000   101.497693      7    366     23   46.80%       8      2
    1782    54.000000   101.497693      7    366     20   46.80%      34      2
    1888    54.000000   101.497693      7    416      1   46.80%       1      2
    2002    54.000000   101.497693      7    416     25   46.80%      21      2
    2117    54.000000   101.497693      7    416     30   46.80%      25      2
    2225    54.000000   101.497693      7    416     12   46.80%      56      3
    2326    54.000000   101.497693      7    416     20   46.80%       5      3
B&B tree size: 7.1MB total
 
    Node     BestSoln    BestBound   Sols Active  Depth     Gap     GInf   Time
*   2377    57.000000   101.497693      8    484     22   43.84%       0      3
    2435    57.000000   101.497693      8    539      1   43.84%       1      3
    2539    57.000000   101.497693      8    539     15   43.84%      47      3
    2656    57.000000   101.497693      8    539     20   43.84%      36      3
    2764    57.000000   101.497693      8    539     16   43.84%      47      3
    2877    57.000000   101.497693      8    539     16   43.84%      42      3
    2990    57.000000   101.497693      8    539     15   43.84%      30      3
    3110    57.000000   101.497693      8    654     23   43.84%       9      3
    3222    57.000000   101.497693      8    654     18   43.84%      44      3
    3322    57.000000   101.497693      8    654     26   43.84%      37      4
    3424    57.000000   101.497693      8    732     22   43.84%      31      4
    3531    57.000000   100.342045      8    848     22   43.19%      14      4
    3640    57.000000   100.342045      8    895     16   43.19%      28      4
    3753    57.000000   100.342045      8    933     21   43.19%      31      4
    3855    57.000000   100.342045      8    933     12   43.19%      45      4
    3958    57.000000   100.342045      8    933     19   43.19%      11      4
    4074    57.000000   100.342045      8    991     20   43.19%      25      4
a   4179    58.000000   100.342045      9    991     26   42.20%       0      4
    4185    58.000000   100.342045      9    991     26   42.20%       9      4
    4298    58.000000   100.342045      9    991     21   42.20%      40      4
B&B tree size: 10MB total
 
    Node     BestSoln    BestBound   Sols Active  Depth     Gap     GInf   Time
    4428    58.000000    98.413491      9   1101      1   41.06%       1      4
    4537    58.000000    98.413491      9   1101     16   41.06%      51      4
    4644    58.000000    98.413491      9   1101     19   41.06%       6      4
    4746    58.000000    98.413491      9   1121     21   41.06%      34      4
a   4795    60.000000    98.413491     10   1121     25   39.03%       0      4
    4851    60.000000    98.413491     10   1121     22   39.03%      45      4
    4963    60.000000    98.413491     10   1121     13   39.03%      48      4
    5071    60.000000    98.413491     10   1121     27   39.03%      23      5
    5176    60.000000    98.413491     10   1134     15   39.03%      46      5
    5279    60.000000    98.413491     10   1134     16   39.03%      39      5
    5384    60.000000    98.413491     10   1134     21   39.03%      33      5
    5498    60.000000    95.109360     10   1192     20   36.91%      12      5
    5608    60.000000    95.109360     10   1252     21   36.91%      29      5
    5715    60.000000    95.109360     10   1283     15   36.91%      36      5
    5819    60.000000    95.109360     10   1300     18   36.91%      31      5
    5927    60.000000    95.109360     10   1300     24   36.91%      11      5
    6028    60.000000    95.109360     10   1300     15   36.91%      38      5
    6135    60.000000    95.109360     10   1398     25   36.91%      11      5
    6240    60.000000    95.109360     10   1398     15   36.91%      19      5
    6352    60.000000    95.109360     10   1414     19   36.91%      33      5
B&B tree size: 12MB total
 
    Node     BestSoln    BestBound   Sols Active  Depth     Gap     GInf   Time
    6460    60.000000    95.109360     10   1506     22   36.91%      35      6
    6561    60.000000    95.109360     10   1506     20   36.91%      21      6
    6674    60.000000    92.601793     10   1570     21   35.21%      33      6
    6774    60.000000    92.601793     10   1570     17   35.21%      40      6
    6885    60.000000    92.601793     10   1570     22   35.21%      37      6
    6994    60.000000    92.601793     10   1573     22   35.21%      30      6
    7106    60.000000    92.601793     10   1573     23   35.21%      29      6
    7219    60.000000    92.601793     10   1573     26   35.21%      14      6
    7327    60.000000    92.601793     10   1573     21   35.21%      12      6
    7436    60.000000    92.601793     10   1588     21   35.21%      27      6
    7551    60.000000    92.601793     10   1677     18   35.21%      26      6
    7651    60.000000    89.229083     10   1725      1   32.76%       1      6
    7751    60.000000    89.229083     10   1725     22   32.76%      17      6
    7854    60.000000    89.229083     10   1776     17   32.76%      44      7
    7961    60.000000    89.229083     10   1776     21   32.76%      43      7
    8066    60.000000    89.221333     10   1796     19   32.75%      31      7
    8168    60.000000    89.221333     10   1796     21   32.75%      34      7
    8273    60.000000    89.221333     10   1796     17   32.75%      46      7
    8377    60.000000    89.221333     10   1843     17   32.75%      42      7
    8490    60.000000    89.221333     10   1843     22   32.75%      30      7
B&B tree size: 15MB total
 
    Node     BestSoln    BestBound   Sols Active  Depth     Gap     GInf   Time
    8604    60.000000    85.419211     10   1908     21   29.76%      17      7
    8709    60.000000    85.419211     10   1908     16   29.76%      50      7
    8823    60.000000    85.419211     10   1923     14   29.76%      41      7
    8937    60.000000    85.419211     10   1937     24   29.76%      25      7
    9043    60.000000    85.419211     10   1968     21   29.76%      32      8
    9146    60.000000    85.419211     10   1968     16   29.76%      26      8
    9253    60.000000    84.859805     10   1997     22   29.30%      23      8
    9355    60.000000    84.859805     10   1998     18   29.30%      16      8
    9468    60.000000    84.859805     10   1998     23   29.30%      25      8
    9576    60.000000    84.859805     10   1998     22   29.30%      40      8
    9691    60.000000    84.859805     10   1998     21   29.30%      28      8
    9794    60.000000    84.859805     10   1998     19   29.30%      25      8
    9896    60.000000    84.859805     10   1998     17   29.30%      28      8
   10001    60.000000    84.859805     10   2023     16   29.30%      28      8
   11011    60.000000    82.770604     10   2191     22   27.51%      41      9
   12026    60.000000    82.770604     10   2247     13   27.51%      33     10
   13030    60.000000    82.770604     10   2376     16   27.51%      35     10
   14034    60.000000    81.966533     10   2581     16   26.80%      29     11
   15054    60.000000    81.948718     10   2630     24   26.78%      14     12
   16054    60.000000    80.182222     10   2630     15   25.17%      45     13
B&B tree size: 24MB total
 
    Node     BestSoln    BestBound   Sols Active  Depth     Gap     GInf   Time
   17057    60.000000    78.345781     10   2711     18   23.42%      47     13
   18073    60.000000    77.583568     10   2747     26   22.66%      28     14
   19082    60.000000    77.001207     10   2753     22   22.08%      18     15
   20096    60.000000    76.966080     10   2821     22   22.04%      39     15
   21107    60.000000    75.734293     10   2757     23   20.78%      20     16
   22121    60.000000    75.011831     10   2713     26   20.01%      23     16
   23124    60.000000    75.000000     10   2695     20   20.00%      28     17
   24124    60.000000    74.000000     10   2635     26   18.92%      30     17
   25127    60.000000    73.779279     10   2586     23   18.68%      24     18
   26128    60.000000    73.000000     10   2532     24   17.81%      28     18
   27133    60.000000    72.161096     10   2450     24   16.85%      42     19
   28149    60.000000    71.093831     10   2314     28   15.60%       5     19
   29162    60.000000    71.000000     10   2152     14   15.49%      26     20
   30168    60.000000    70.000000     10   2002     21   14.29%      35     20
   31172    60.000000    69.000000     10   1856     17   13.04%      49     21
   32172    60.000000    68.000000     10   1607     16   11.76%      33     21
   33173    60.000000    67.022222     10   1326     21   10.48%      18     22
   34175    60.000000    66.000000     10    977     19    9.09%      30     22
   35175    60.000000    63.587097     10    503     17    5.64%      22     22
 *** Search completed ***     Time:    23 Nodes:      36141
Number of integer feasible solutions found is 10
Best integer solution found is    60.000000
Best bound is    60.000000
Uncrunching matrix
